SKUs = {
  "BRAKE_PAD_3_309",
  "BRAKE_PAD_3_328",
  "BRAKE_PAD_3_331",
  "BRAKE_PAD_3_356",
  "BRAKE_PAD_3_364",
  "BRAKE_PAD_3_367",
  "BRAKE_PAD_3_389",
  "BRAKE_PAD_3_397",
  "BRAKE_PAD_3_409",
  "BRAKE_PAD_3_423",
  "BRAKE_PAD_3_445",
  "BRAKE_PAD_3_456",
  "BRAKE_PAD_3_457",
  "BRAKE_PAD_3_459",
  "BRAKE_PAD_3_465",
  "BRAKE_PAD_3_486",
  "BRAKE_PAD_3_507",
  "BRAKE_PAD_3_512",
  "BRAKE_PAD_3_532",
  "BRAKE_PAD_3_542",
  "BRAKE_PAD_3_583",
  "BRAKE_PAD_3_584",
  "BRAKE_PAD_3_590",
  "BRAKE_PAD_3_600",
  "BRAKE_PAD_3_636",
  "BRAKE_PAD_3_638",
  "BRAKE_PAD_3_642",
  "BRAKE_PAD_3_645",
  "BRAKE_PAD_3_647",
  "BRAKE_PAD_3_652",
  "BRAKE_PAD_3_653",
  "BRAKE_PAD_3_674",
  "BRAKE_PAD_3_676",
  "BRAKE_PAD_3_678",
  "BRAKE_PAD_3_692",
  "BRAKE_PAD_3_693",
  "BRAKE_PAD_3_701",
  "BRAKE_PAD_3_703",
  "BRAKE_PAD_3_716",
  "BRAKE_PAD_3_733",
  "BRAKE_PAD_3_742",
  "BRAKE_PAD_3_751",
  "BRAKE_PAD_3_765",
  "BRAKE_PAD_3_774",
  "BRAKE_PAD_3_793",
  "BRAKE_PAD_3_795",
  "BRAKE_PAD_3_805",
  "BRAKE_PAD_3_824",
  "FAN_MOTOR_1_015",
  "FAN_MOTOR_1_021",
  "FAN_MOTOR_1_028",
  "FAN_MOTOR_1_037",
  "FAN_MOTOR_1_064",
  "FAN_MOTOR_1_081",
  "FAN_MOTOR_1_099",
  "FAN_MOTOR_1_142",
  "FAN_MOTOR_1_144",
  "FAN_MOTOR_1_153",
  "FAN_MOTOR_1_170",
  "FAN_MOTOR_1_176",
  "FAN_MOTOR_1_188",
  "FAN_MOTOR_1_202",
  "FAN_MOTOR_1_224",
  "FAN_MOTOR_1_238",
  "FAN_MOTOR_1_255",
  "FAN_MOTOR_1_259",
  "FAN_MOTOR_1_272",
  "FAN_MOTOR_1_291",
  "FAN_MOTOR_1_298",
  "FAN_MOTOR_1_314",
  "FAN_MOTOR_1_339",
  "FAN_MOTOR_1_356",
  "FAN_MOTOR_1_371",
  "FAN_MOTOR_1_390",
  "FAN_MOTOR_1_395",
  "FAN_MOTOR_1_408",
  "FAN_MOTOR_1_441",
  "FAN_MOTOR_1_444",
  "FAN_MOTOR_1_446",
  "FAN_MOTOR_1_462",
  "FAN_MOTOR_1_467",
  "FAN_MOTOR_1_468",
  "FAN_MOTOR_1_505",
  "FAN_MOTOR_1_521",
  "FAN_MOTOR_1_524",
  "FAN_MOTOR_1_537",
  "FAN_MOTOR_2_004",
  "FAN_MOTOR_2_024",
  "FAN_MOTOR_2_036",
  "FAN_MOTOR_2_040",
  "FAN_MOTOR_2_057",
  "FAN_MOTOR_2_062",
  "FAN_MOTOR_2_069",
  "FAN_MOTOR_2_074",
  "FAN_MOTOR_2_130",
  "FAN_MOTOR_2_151",
  "FAN_MOTOR_2_156"
};

Regions = {
  "CA",
  "TX",
  "WI"
};

unit_cost = #[
  "BRAKE_PAD_3_309": 1.9800,
  "BRAKE_PAD_3_328": 3.7994,
  "BRAKE_PAD_3_331": 1.4218,
  "BRAKE_PAD_3_356": 2.9805,
  "BRAKE_PAD_3_364": 2.7413,
  "BRAKE_PAD_3_367": 2.6800,
  "BRAKE_PAD_3_389": 1.6534,
  "BRAKE_PAD_3_397": 1.9911,
  "BRAKE_PAD_3_409": 2.7708,
  "BRAKE_PAD_3_423": 2.9800,
  "BRAKE_PAD_3_445": 2.4800,
  "BRAKE_PAD_3_456": 3.9414,
  "BRAKE_PAD_3_457": 2.3927,
  "BRAKE_PAD_3_459": 1.8524,
  "BRAKE_PAD_3_465": 1.8103,
  "BRAKE_PAD_3_486": 2.7408,
  "BRAKE_PAD_3_507": 1.9800,
  "BRAKE_PAD_3_512": 1.9800,
  "BRAKE_PAD_3_532": 2.9756,
  "BRAKE_PAD_3_542": 2.5056,
  "BRAKE_PAD_3_583": 1.4838,
  "BRAKE_PAD_3_584": 1.0000,
  "BRAKE_PAD_3_590": 2.6023,
  "BRAKE_PAD_3_600": 2.5027,
  "BRAKE_PAD_3_636": 3.5022,
  "BRAKE_PAD_3_638": 1.4939,
  "BRAKE_PAD_3_642": 3.3035,
  "BRAKE_PAD_3_645": 2.3862,
  "BRAKE_PAD_3_647": 1.1842,
  "BRAKE_PAD_3_652": 3.9800,
  "BRAKE_PAD_3_653": 3.9403,
  "BRAKE_PAD_3_674": 2.9800,
  "BRAKE_PAD_3_676": 7.2657,
  "BRAKE_PAD_3_678": 4.9210,
  "BRAKE_PAD_3_692": 0.8184,
  "BRAKE_PAD_3_693": 3.4800,
  "BRAKE_PAD_3_701": 2.0092,
  "BRAKE_PAD_3_703": 1.9800,
  "BRAKE_PAD_3_716": 1.3045,
  "BRAKE_PAD_3_733": 1.9563,
  "BRAKE_PAD_3_742": 1.2250,
  "BRAKE_PAD_3_751": 4.9800,
  "BRAKE_PAD_3_765": 2.8680,
  "BRAKE_PAD_3_774": 6.3320,
  "BRAKE_PAD_3_793": 2.9746,
  "BRAKE_PAD_3_795": 2.9756,
  "BRAKE_PAD_3_805": 1.0000,
  "BRAKE_PAD_3_824": 2.6365,
  "FAN_MOTOR_1_015": 5.2631,
  "FAN_MOTOR_1_021": 1.9435,
  "FAN_MOTOR_1_028": 2.8791,
  "FAN_MOTOR_1_037": 4.0401,
  "FAN_MOTOR_1_064": 5.7800,
  "FAN_MOTOR_1_081": 8.1740,
  "FAN_MOTOR_1_099": 2.3700,
  "FAN_MOTOR_1_142": 5.9063,
  "FAN_MOTOR_1_144": 2.9351,
  "FAN_MOTOR_1_153": 1.9700,
  "FAN_MOTOR_1_170": 1.9615,
  "FAN_MOTOR_1_176": 3.9363,
  "FAN_MOTOR_1_188": 3.9800,
  "FAN_MOTOR_1_202": 1.9800,
  "FAN_MOTOR_1_224": 8.2874,
  "FAN_MOTOR_1_238": 2.4800,
  "FAN_MOTOR_1_255": 9.3679,
  "FAN_MOTOR_1_259": 9.6400,
  "FAN_MOTOR_1_272": 9.9585,
  "FAN_MOTOR_1_291": 3.5626,
  "FAN_MOTOR_1_298": 3.7476,
  "FAN_MOTOR_1_314": 7.9800,
  "FAN_MOTOR_1_339": 0.9786,
  "FAN_MOTOR_1_356": 5.9600,
  "FAN_MOTOR_1_371": 4.9400,
  "FAN_MOTOR_1_390": 1.8395,
  "FAN_MOTOR_1_395": 4.8499,
  "FAN_MOTOR_1_408": 5.5709,
  "FAN_MOTOR_1_441": 2.7700,
  "FAN_MOTOR_1_444": 4.8800,
  "FAN_MOTOR_1_446": 3.9105,
  "FAN_MOTOR_1_462": 1.9243,
  "FAN_MOTOR_1_467": 11.8058,
  "FAN_MOTOR_1_468": 4.9799,
  "FAN_MOTOR_1_505": 2.5325,
  "FAN_MOTOR_1_521": 0.9599,
  "FAN_MOTOR_1_524": 3.9700,
  "FAN_MOTOR_1_537": 15.9701,
  "FAN_MOTOR_2_004": 5.6700,
  "FAN_MOTOR_2_024": 2.2200,
  "FAN_MOTOR_2_036": 3.9700,
  "FAN_MOTOR_2_040": 3.9700,
  "FAN_MOTOR_2_057": 4.9700,
  "FAN_MOTOR_2_062": 2.9243,
  "FAN_MOTOR_2_069": 10.0556,
  "FAN_MOTOR_2_074": 0.9697,
  "FAN_MOTOR_2_130": 7.9700,
  "FAN_MOTOR_2_151": 4.4400,
  "FAN_MOTOR_2_156": 7.0541,
]#;

original_holding_cost = #[
  "BRAKE_PAD_3_309": 208.5238,
  "BRAKE_PAD_3_328": 389.0414,
  "BRAKE_PAD_3_331": 343.8231,
  "BRAKE_PAD_3_356": 432.8650,
  "BRAKE_PAD_3_364": 223.7756,
  "BRAKE_PAD_3_367": 509.2622,
  "BRAKE_PAD_3_389": 799.5988,
  "BRAKE_PAD_3_397": 244.0861,
  "BRAKE_PAD_3_409": 268.6976,
  "BRAKE_PAD_3_423": 437.4128,
  "BRAKE_PAD_3_445": 235.5364,
  "BRAKE_PAD_3_456": 338.2057,
  "BRAKE_PAD_3_457": 288.3036,
  "BRAKE_PAD_3_459": 492.7045,
  "BRAKE_PAD_3_465": 118.8657,
  "BRAKE_PAD_3_486": 237.6448,
  "BRAKE_PAD_3_507": 247.8743,
  "BRAKE_PAD_3_512": 214.5376,
  "BRAKE_PAD_3_532": 610.8240,
  "BRAKE_PAD_3_542": 251.9419,
  "BRAKE_PAD_3_583": 191.3118,
  "BRAKE_PAD_3_584": 281.7734,
  "BRAKE_PAD_3_590": 253.7281,
  "BRAKE_PAD_3_600": 394.0099,
  "BRAKE_PAD_3_636": 1064.5338,
  "BRAKE_PAD_3_638": 330.7282,
  "BRAKE_PAD_3_642": 264.5195,
  "BRAKE_PAD_3_645": 235.4926,
  "BRAKE_PAD_3_647": 204.7667,
  "BRAKE_PAD_3_652": 765.3914,
  "BRAKE_PAD_3_653": 510.0038,
  "BRAKE_PAD_3_674": 569.5507,
  "BRAKE_PAD_3_676": 486.7508,
  "BRAKE_PAD_3_678": 873.1665,
  "BRAKE_PAD_3_692": 374.5778,
  "BRAKE_PAD_3_693": 138.2598,
  "BRAKE_PAD_3_701": 283.6528,
  "BRAKE_PAD_3_703": 332.6731,
  "BRAKE_PAD_3_716": 288.6454,
  "BRAKE_PAD_3_733": 248.5970,
  "BRAKE_PAD_3_742": 235.3075,
  "BRAKE_PAD_3_751": 412.2658,
  "BRAKE_PAD_3_765": 482.5639,
  "BRAKE_PAD_3_774": 437.2946,
  "BRAKE_PAD_3_793": 309.4669,
  "BRAKE_PAD_3_795": 573.2615,
  "BRAKE_PAD_3_805": 401.8448,
  "BRAKE_PAD_3_824": 196.9638,
  "FAN_MOTOR_1_015": 256.1006,
  "FAN_MOTOR_1_021": 349.1703,
  "FAN_MOTOR_1_028": 472.1824,
  "FAN_MOTOR_1_037": 253.3455,
  "FAN_MOTOR_1_064": 244.8350,
  "FAN_MOTOR_1_081": 441.5183,
  "FAN_MOTOR_1_099": 220.4822,
  "FAN_MOTOR_1_142": 469.6608,
  "FAN_MOTOR_1_144": 121.0486,
  "FAN_MOTOR_1_153": 418.4445,
  "FAN_MOTOR_1_170": 399.2704,
  "FAN_MOTOR_1_176": 459.1381,
  "FAN_MOTOR_1_188": 506.4710,
  "FAN_MOTOR_1_202": 460.3383,
  "FAN_MOTOR_1_224": 406.1736,
  "FAN_MOTOR_1_238": 344.2259,
  "FAN_MOTOR_1_255": 633.2422,
  "FAN_MOTOR_1_259": 903.9780,
  "FAN_MOTOR_1_272": 703.9313,
  "FAN_MOTOR_1_291": 495.7248,
  "FAN_MOTOR_1_298": 457.8337,
  "FAN_MOTOR_1_314": 264.6909,
  "FAN_MOTOR_1_339": 524.0576,
  "FAN_MOTOR_1_356": 622.7702,
  "FAN_MOTOR_1_371": 516.5805,
  "FAN_MOTOR_1_390": 228.7835,
  "FAN_MOTOR_1_395": 320.7011,
  "FAN_MOTOR_1_408": 463.0688,
  "FAN_MOTOR_1_441": 655.3698,
  "FAN_MOTOR_1_444": 278.5281,
  "FAN_MOTOR_1_446": 283.2020,
  "FAN_MOTOR_1_462": 438.6937,
  "FAN_MOTOR_1_467": 918.5003,
  "FAN_MOTOR_1_468": 548.2058,
  "FAN_MOTOR_1_505": 509.7062,
  "FAN_MOTOR_1_521": 750.4544,
  "FAN_MOTOR_1_524": 375.8531,
  "FAN_MOTOR_1_537": 1010.5881,
  "FAN_MOTOR_2_004": 189.1699,
  "FAN_MOTOR_2_024": 134.0732,
  "FAN_MOTOR_2_036": 464.5819,
  "FAN_MOTOR_2_040": 408.4269,
  "FAN_MOTOR_2_057": 253.9220,
  "FAN_MOTOR_2_062": 209.1869,
  "FAN_MOTOR_2_069": 345.8279,
  "FAN_MOTOR_2_074": 196.1446,
  "FAN_MOTOR_2_130": 178.1421,
  "FAN_MOTOR_2_151": 105.0299,
  "FAN_MOTOR_2_156": 299.6653,
]#;

original_ordering_cost = #[
  "BRAKE_PAD_3_309": 55.0689,
  "BRAKE_PAD_3_328": 167.7231,
  "BRAKE_PAD_3_331": 160.4957,
  "BRAKE_PAD_3_356": 188.9417,
  "BRAKE_PAD_3_364": 92.3919,
  "BRAKE_PAD_3_367": 243.9255,
  "BRAKE_PAD_3_389": 552.0618,
  "BRAKE_PAD_3_397": 90.4426,
  "BRAKE_PAD_3_409": 112.4371,
  "BRAKE_PAD_3_423": 169.2450,
  "BRAKE_PAD_3_445": 82.1465,
  "BRAKE_PAD_3_456": 131.4152,
  "BRAKE_PAD_3_457": 148.6799,
  "BRAKE_PAD_3_459": 249.5755,
  "BRAKE_PAD_3_465": 96.0630,
  "BRAKE_PAD_3_486": 97.1212,
  "BRAKE_PAD_3_507": 102.7641,
  "BRAKE_PAD_3_512": 78.0709,
  "BRAKE_PAD_3_532": 338.4842,
  "BRAKE_PAD_3_542": 96.7408,
  "BRAKE_PAD_3_583": 84.2424,
  "BRAKE_PAD_3_584": 121.4945,
  "BRAKE_PAD_3_590": 225.4341,
  "BRAKE_PAD_3_600": 241.0469,
  "BRAKE_PAD_3_636": 639.6214,
  "BRAKE_PAD_3_638": 146.5716,
  "BRAKE_PAD_3_642": 146.5441,
  "BRAKE_PAD_3_645": 120.9524,
  "BRAKE_PAD_3_647": 107.0482,
  "BRAKE_PAD_3_652": 417.6497,
  "BRAKE_PAD_3_653": 292.0468,
  "BRAKE_PAD_3_674": 274.2032,
  "BRAKE_PAD_3_676": 234.8950,
  "BRAKE_PAD_3_678": 395.1046,
  "BRAKE_PAD_3_692": 195.8034,
  "BRAKE_PAD_3_693": 57.0486,
  "BRAKE_PAD_3_701": 111.2304,
  "BRAKE_PAD_3_703": 153.4265,
  "BRAKE_PAD_3_716": 130.0863,
  "BRAKE_PAD_3_733": 96.4949,
  "BRAKE_PAD_3_742": 162.9346,
  "BRAKE_PAD_3_751": 154.4245,
  "BRAKE_PAD_3_765": 237.4898,
  "BRAKE_PAD_3_774": 207.0382,
  "BRAKE_PAD_3_793": 107.8116,
  "BRAKE_PAD_3_795": 297.5383,
  "BRAKE_PAD_3_805": 220.0788,
  "BRAKE_PAD_3_824": 97.3095,
  "FAN_MOTOR_1_015": 160.5500,
  "FAN_MOTOR_1_021": 171.2056,
  "FAN_MOTOR_1_028": 227.6540,
  "FAN_MOTOR_1_037": 133.1737,
  "FAN_MOTOR_1_064": 76.2043,
  "FAN_MOTOR_1_081": 345.9411,
  "FAN_MOTOR_1_099": 123.9655,
  "FAN_MOTOR_1_142": 224.2634,
  "FAN_MOTOR_1_144": 95.7199,
  "FAN_MOTOR_1_153": 205.0432,
  "FAN_MOTOR_1_170": 188.3972,
  "FAN_MOTOR_1_176": 179.5691,
  "FAN_MOTOR_1_188": 224.5513,
  "FAN_MOTOR_1_202": 262.1285,
  "FAN_MOTOR_1_224": 207.4706,
  "FAN_MOTOR_1_238": 147.1856,
  "FAN_MOTOR_1_255": 231.8592,
  "FAN_MOTOR_1_259": 449.2379,
  "FAN_MOTOR_1_272": 358.7862,
  "FAN_MOTOR_1_291": 229.2218,
  "FAN_MOTOR_1_298": 184.0821,
  "FAN_MOTOR_1_314": 92.8947,
  "FAN_MOTOR_1_339": 279.8929,
  "FAN_MOTOR_1_356": 472.2332,
  "FAN_MOTOR_1_371": 242.4022,
  "FAN_MOTOR_1_390": 113.6861,
  "FAN_MOTOR_1_395": 153.7282,
  "FAN_MOTOR_1_408": 245.3139,
  "FAN_MOTOR_1_441": 386.4576,
  "FAN_MOTOR_1_444": 88.4934,
  "FAN_MOTOR_1_446": 85.1732,
  "FAN_MOTOR_1_462": 194.2857,
  "FAN_MOTOR_1_467": 392.0514,
  "FAN_MOTOR_1_468": 276.3266,
  "FAN_MOTOR_1_505": 246.9763,
  "FAN_MOTOR_1_521": 464.2141,
  "FAN_MOTOR_1_524": 172.3463,
  "FAN_MOTOR_1_537": 458.7482,
  "FAN_MOTOR_2_004": 82.3063,
  "FAN_MOTOR_2_024": 55.1844,
  "FAN_MOTOR_2_036": 183.1686,
  "FAN_MOTOR_2_040": 152.0249,
  "FAN_MOTOR_2_057": 80.6734,
  "FAN_MOTOR_2_062": 95.4598,
  "FAN_MOTOR_2_069": 88.7877,
  "FAN_MOTOR_2_074": 90.7869,
  "FAN_MOTOR_2_130": 77.6291,
  "FAN_MOTOR_2_151": 61.5151,
  "FAN_MOTOR_2_156": 81.4704,
]#;

original_stockout_cost = #[
  "BRAKE_PAD_3_309": 1.3339,
  "BRAKE_PAD_3_328": 6.7954,
  "BRAKE_PAD_3_331": 6.6927,
  "BRAKE_PAD_3_356": 8.9149,
  "BRAKE_PAD_3_364": 3.8792,
  "BRAKE_PAD_3_367": 14.6309,
  "BRAKE_PAD_3_389": 59.8611,
  "BRAKE_PAD_3_397": 2.7691,
  "BRAKE_PAD_3_409": 3.8059,
  "BRAKE_PAD_3_423": 7.6593,
  "BRAKE_PAD_3_445": 3.4799,
  "BRAKE_PAD_3_456": 5.9855,
  "BRAKE_PAD_3_457": 5.9025,
  "BRAKE_PAD_3_459": 13.6399,
  "BRAKE_PAD_3_465": 2.5102,
  "BRAKE_PAD_3_486": 2.9571,
  "BRAKE_PAD_3_507": 3.1932,
  "BRAKE_PAD_3_512": 3.2735,
  "BRAKE_PAD_3_532": 26.8680,
  "BRAKE_PAD_3_542": 4.5518,
  "BRAKE_PAD_3_583": 3.2899,
  "BRAKE_PAD_3_584": 4.9737,
  "BRAKE_PAD_3_590": 6.8187,
  "BRAKE_PAD_3_600": 11.2207,
  "BRAKE_PAD_3_636": 81.0656,
  "BRAKE_PAD_3_638": 7.3351,
  "BRAKE_PAD_3_642": 5.5506,
  "BRAKE_PAD_3_645": 4.0744,
  "BRAKE_PAD_3_647": 5.1430,
  "BRAKE_PAD_3_652": 39.6066,
  "BRAKE_PAD_3_653": 17.6256,
  "BRAKE_PAD_3_674": 19.4644,
  "BRAKE_PAD_3_676": 11.7381,
  "BRAKE_PAD_3_678": 38.8103,
  "BRAKE_PAD_3_692": 8.9664,
  "BRAKE_PAD_3_693": 1.4130,
  "BRAKE_PAD_3_701": 4.2997,
  "BRAKE_PAD_3_703": 7.4853,
  "BRAKE_PAD_3_716": 5.6709,
  "BRAKE_PAD_3_733": 4.8179,
  "BRAKE_PAD_3_742": 6.2711,
  "BRAKE_PAD_3_751": 8.0559,
  "BRAKE_PAD_3_765": 14.3066,
  "BRAKE_PAD_3_774": 9.3654,
  "BRAKE_PAD_3_793": 4.2428,
  "BRAKE_PAD_3_795": 22.1540,
  "BRAKE_PAD_3_805": 10.2783,
  "BRAKE_PAD_3_824": 2.5607,
  "FAN_MOTOR_1_015": 3.2944,
  "FAN_MOTOR_1_021": 4.0782,
  "FAN_MOTOR_1_028": 7.0015,
  "FAN_MOTOR_1_037": 2.7672,
  "FAN_MOTOR_1_064": 1.9125,
  "FAN_MOTOR_1_081": 10.7513,
  "FAN_MOTOR_1_099": 2.3890,
  "FAN_MOTOR_1_142": 6.4555,
  "FAN_MOTOR_1_144": 1.5082,
  "FAN_MOTOR_1_153": 6.3251,
  "FAN_MOTOR_1_170": 5.4626,
  "FAN_MOTOR_1_176": 5.0655,
  "FAN_MOTOR_1_188": 7.7802,
  "FAN_MOTOR_1_202": 9.5797,
  "FAN_MOTOR_1_224": 5.0921,
  "FAN_MOTOR_1_238": 4.4496,
  "FAN_MOTOR_1_255": 8.4348,
  "FAN_MOTOR_1_259": 30.8504,
  "FAN_MOTOR_1_272": 17.2965,
  "FAN_MOTOR_1_291": 7.9461,
  "FAN_MOTOR_1_298": 5.3021,
  "FAN_MOTOR_1_314": 2.6183,
  "FAN_MOTOR_1_339": 11.5355,
  "FAN_MOTOR_1_356": 21.5889,
  "FAN_MOTOR_1_371": 11.3292,
  "FAN_MOTOR_1_390": 3.5621,
  "FAN_MOTOR_1_395": 3.8812,
  "FAN_MOTOR_1_408": 7.1010,
  "FAN_MOTOR_1_441": 25.7898,
  "FAN_MOTOR_1_444": 2.6020,
  "FAN_MOTOR_1_446": 1.7415,
  "FAN_MOTOR_1_462": 5.5076,
  "FAN_MOTOR_1_467": 23.7335,
  "FAN_MOTOR_1_468": 10.9065,
  "FAN_MOTOR_1_505": 9.3207,
  "FAN_MOTOR_1_521": 27.5484,
  "FAN_MOTOR_1_524": 5.6752,
  "FAN_MOTOR_1_537": 32.1125,
  "FAN_MOTOR_2_004": 1.7046,
  "FAN_MOTOR_2_024": 0.8187,
  "FAN_MOTOR_2_036": 5.3420,
  "FAN_MOTOR_2_040": 4.9731,
  "FAN_MOTOR_2_057": 2.0810,
  "FAN_MOTOR_2_062": 1.5846,
  "FAN_MOTOR_2_069": 2.0716,
  "FAN_MOTOR_2_074": 1.5482,
  "FAN_MOTOR_2_130": 1.4985,
  "FAN_MOTOR_2_151": 0.7546,
  "FAN_MOTOR_2_156": 1.8082,
]#;

original_avg_inventory = #[
  "BRAKE_PAD_3_309": 447.8851,
  "BRAKE_PAD_3_328": 521.8042,
  "BRAKE_PAD_3_331": 1431.6562,
  "BRAKE_PAD_3_356": 775.4858,
  "BRAKE_PAD_3_364": 374.0850,
  "BRAKE_PAD_3_367": 1095.9935,
  "BRAKE_PAD_3_389": 3208.4588,
  "BRAKE_PAD_3_397": 563.6857,
  "BRAKE_PAD_3_409": 447.8317,
  "BRAKE_PAD_3_423": 743.4168,
  "BRAKE_PAD_3_445": 417.1160,
  "BRAKE_PAD_3_456": 423.6745,
  "BRAKE_PAD_3_457": 608.2429,
  "BRAKE_PAD_3_459": 1445.3678,
  "BRAKE_PAD_3_465": 352.3811,
  "BRAKE_PAD_3_486": 407.1256,
  "BRAKE_PAD_3_507": 575.2947,
  "BRAKE_PAD_3_512": 517.1827,
  "BRAKE_PAD_3_532": 1305.8726,
  "BRAKE_PAD_3_542": 458.7593,
  "BRAKE_PAD_3_583": 642.4457,
  "BRAKE_PAD_3_584": 1501.0653,
  "BRAKE_PAD_3_590": 569.1542,
  "BRAKE_PAD_3_600": 910.9992,
  "BRAKE_PAD_3_636": 1779.6103,
  "BRAKE_PAD_3_638": 1227.4163,
  "BRAKE_PAD_3_642": 420.6609,
  "BRAKE_PAD_3_645": 517.3638,
  "BRAKE_PAD_3_647": 989.8804,
  "BRAKE_PAD_3_652": 1169.5812,
  "BRAKE_PAD_3_653": 751.5694,
  "BRAKE_PAD_3_674": 1166.4783,
  "BRAKE_PAD_3_676": 337.7373,
  "BRAKE_PAD_3_678": 981.0752,
  "BRAKE_PAD_3_692": 2738.5080,
  "BRAKE_PAD_3_693": 173.8690,
  "BRAKE_PAD_3_701": 706.0216,
  "BRAKE_PAD_3_703": 904.5883,
  "BRAKE_PAD_3_716": 1223.5912,
  "BRAKE_PAD_3_733": 623.6437,
  "BRAKE_PAD_3_742": 1149.9412,
  "BRAKE_PAD_3_751": 385.3840,
  "BRAKE_PAD_3_765": 1026.3506,
  "BRAKE_PAD_3_774": 350.3841,
  "BRAKE_PAD_3_793": 485.2254,
  "BRAKE_PAD_3_795": 1223.5020,
  "BRAKE_PAD_3_805": 2285.6206,
  "BRAKE_PAD_3_824": 366.4377,
  "FAN_MOTOR_1_015": 239.1091,
  "FAN_MOTOR_1_021": 999.7053,
  "FAN_MOTOR_1_028": 871.6390,
  "FAN_MOTOR_1_037": 315.0912,
  "FAN_MOTOR_1_064": 176.8387,
  "FAN_MOTOR_1_081": 311.3517,
  "FAN_MOTOR_1_099": 496.7879,
  "FAN_MOTOR_1_142": 398.9434,
  "FAN_MOTOR_1_144": 218.7431,
  "FAN_MOTOR_1_153": 1275.8260,
  "FAN_MOTOR_1_170": 1205.2975,
  "FAN_MOTOR_1_176": 585.2178,
  "FAN_MOTOR_1_188": 711.2716,
  "FAN_MOTOR_1_202": 1503.2005,
  "FAN_MOTOR_1_224": 242.3299,
  "FAN_MOTOR_1_238": 745.3372,
  "FAN_MOTOR_1_255": 319.0278,
  "FAN_MOTOR_1_259": 582.3704,
  "FAN_MOTOR_1_272": 397.8561,
  "FAN_MOTOR_1_291": 794.8439,
  "FAN_MOTOR_1_298": 629.0713,
  "FAN_MOTOR_1_314": 144.2438,
  "FAN_MOTOR_1_339": 3433.0147,
  "FAN_MOTOR_1_356": 628.8047,
  "FAN_MOTOR_1_371": 579.8206,
  "FAN_MOTOR_1_390": 693.2719,
  "FAN_MOTOR_1_395": 318.9155,
  "FAN_MOTOR_1_408": 424.9359,
  "FAN_MOTOR_1_441": 1474.4986,
  "FAN_MOTOR_1_444": 245.5312,
  "FAN_MOTOR_1_446": 319.7747,
  "FAN_MOTOR_1_462": 1203.1518,
  "FAN_MOTOR_1_467": 421.9422,
  "FAN_MOTOR_1_468": 647.6560,
  "FAN_MOTOR_1_505": 1215.1224,
  "FAN_MOTOR_1_521": 5043.5961,
  "FAN_MOTOR_1_524": 507.3727,
  "FAN_MOTOR_1_537": 360.3450,
  "FAN_MOTOR_2_004": 148.8666,
  "FAN_MOTOR_2_024": 272.1695,
  "FAN_MOTOR_2_036": 599.9660,
  "FAN_MOTOR_2_040": 504.3311,
  "FAN_MOTOR_2_057": 211.6426,
  "FAN_MOTOR_2_062": 346.7881,
  "FAN_MOTOR_2_069": 142.0813,
  "FAN_MOTOR_2_074": 1073.3346,
  "FAN_MOTOR_2_130": 98.7089,
  "FAN_MOTOR_2_151": 112.8752,
  "FAN_MOTOR_2_156": 192.8820,
]#;

original_service_level = #[
  "BRAKE_PAD_3_309": 0.9500,
  "BRAKE_PAD_3_328": 0.9500,
  "BRAKE_PAD_3_331": 0.9500,
  "BRAKE_PAD_3_356": 0.9500,
  "BRAKE_PAD_3_364": 0.9500,
  "BRAKE_PAD_3_367": 0.9500,
  "BRAKE_PAD_3_389": 0.9500,
  "BRAKE_PAD_3_397": 0.9500,
  "BRAKE_PAD_3_409": 0.9500,
  "BRAKE_PAD_3_423": 0.9500,
  "BRAKE_PAD_3_445": 0.9500,
  "BRAKE_PAD_3_456": 0.9500,
  "BRAKE_PAD_3_457": 0.9500,
  "BRAKE_PAD_3_459": 0.9500,
  "BRAKE_PAD_3_465": 0.9500,
  "BRAKE_PAD_3_486": 0.9500,
  "BRAKE_PAD_3_507": 0.9500,
  "BRAKE_PAD_3_512": 0.9500,
  "BRAKE_PAD_3_532": 0.9500,
  "BRAKE_PAD_3_542": 0.9500,
  "BRAKE_PAD_3_583": 0.9500,
  "BRAKE_PAD_3_584": 0.9500,
  "BRAKE_PAD_3_590": 0.9500,
  "BRAKE_PAD_3_600": 0.9500,
  "BRAKE_PAD_3_636": 0.9500,
  "BRAKE_PAD_3_638": 0.9500,
  "BRAKE_PAD_3_642": 0.9500,
  "BRAKE_PAD_3_645": 0.9500,
  "BRAKE_PAD_3_647": 0.9500,
  "BRAKE_PAD_3_652": 0.9500,
  "BRAKE_PAD_3_653": 0.9500,
  "BRAKE_PAD_3_674": 0.9500,
  "BRAKE_PAD_3_676": 0.9500,
  "BRAKE_PAD_3_678": 0.9500,
  "BRAKE_PAD_3_692": 0.9500,
  "BRAKE_PAD_3_693": 0.9500,
  "BRAKE_PAD_3_701": 0.9500,
  "BRAKE_PAD_3_703": 0.9500,
  "BRAKE_PAD_3_716": 0.9500,
  "BRAKE_PAD_3_733": 0.9500,
  "BRAKE_PAD_3_742": 0.9500,
  "BRAKE_PAD_3_751": 0.9500,
  "BRAKE_PAD_3_765": 0.9500,
  "BRAKE_PAD_3_774": 0.9500,
  "BRAKE_PAD_3_793": 0.9500,
  "BRAKE_PAD_3_795": 0.9500,
  "BRAKE_PAD_3_805": 0.9500,
  "BRAKE_PAD_3_824": 0.9500,
  "FAN_MOTOR_1_015": 0.9500,
  "FAN_MOTOR_1_021": 0.9500,
  "FAN_MOTOR_1_028": 0.9500,
  "FAN_MOTOR_1_037": 0.9500,
  "FAN_MOTOR_1_064": 0.9500,
  "FAN_MOTOR_1_081": 0.9500,
  "FAN_MOTOR_1_099": 0.9500,
  "FAN_MOTOR_1_142": 0.9500,
  "FAN_MOTOR_1_144": 0.9500,
  "FAN_MOTOR_1_153": 0.9500,
  "FAN_MOTOR_1_170": 0.9500,
  "FAN_MOTOR_1_176": 0.9500,
  "FAN_MOTOR_1_188": 0.9500,
  "FAN_MOTOR_1_202": 0.9500,
  "FAN_MOTOR_1_224": 0.9500,
  "FAN_MOTOR_1_238": 0.9500,
  "FAN_MOTOR_1_255": 0.9500,
  "FAN_MOTOR_1_259": 0.9500,
  "FAN_MOTOR_1_272": 0.9500,
  "FAN_MOTOR_1_291": 0.9500,
  "FAN_MOTOR_1_298": 0.9500,
  "FAN_MOTOR_1_314": 0.9500,
  "FAN_MOTOR_1_339": 0.9500,
  "FAN_MOTOR_1_356": 0.9500,
  "FAN_MOTOR_1_371": 0.9500,
  "FAN_MOTOR_1_390": 0.9500,
  "FAN_MOTOR_1_395": 0.9500,
  "FAN_MOTOR_1_408": 0.9500,
  "FAN_MOTOR_1_441": 0.9500,
  "FAN_MOTOR_1_444": 0.9500,
  "FAN_MOTOR_1_446": 0.9500,
  "FAN_MOTOR_1_462": 0.9500,
  "FAN_MOTOR_1_467": 0.9500,
  "FAN_MOTOR_1_468": 0.9500,
  "FAN_MOTOR_1_505": 0.9500,
  "FAN_MOTOR_1_521": 0.9500,
  "FAN_MOTOR_1_524": 0.9500,
  "FAN_MOTOR_1_537": 0.9500,
  "FAN_MOTOR_2_004": 0.9500,
  "FAN_MOTOR_2_024": 0.9500,
  "FAN_MOTOR_2_036": 0.9500,
  "FAN_MOTOR_2_040": 0.9500,
  "FAN_MOTOR_2_057": 0.9500,
  "FAN_MOTOR_2_062": 0.9500,
  "FAN_MOTOR_2_069": 0.9500,
  "FAN_MOTOR_2_074": 0.9500,
  "FAN_MOTOR_2_130": 0.9500,
  "FAN_MOTOR_2_151": 0.9500,
  "FAN_MOTOR_2_156": 0.9500,
]#;

ABC_Class = #[
  "BRAKE_PAD_3_309": "B",
  "BRAKE_PAD_3_328": "A",
  "BRAKE_PAD_3_331": "A",
  "BRAKE_PAD_3_356": "A",
  "BRAKE_PAD_3_364": "C",
  "BRAKE_PAD_3_367": "A",
  "BRAKE_PAD_3_389": "A",
  "BRAKE_PAD_3_397": "B",
  "BRAKE_PAD_3_409": "B",
  "BRAKE_PAD_3_423": "A",
  "BRAKE_PAD_3_445": "C",
  "BRAKE_PAD_3_456": "B",
  "BRAKE_PAD_3_457": "B",
  "BRAKE_PAD_3_459": "A",
  "BRAKE_PAD_3_465": "C",
  "BRAKE_PAD_3_486": "B",
  "BRAKE_PAD_3_507": "B",
  "BRAKE_PAD_3_512": "C",
  "BRAKE_PAD_3_532": "A",
  "BRAKE_PAD_3_542": "C",
  "BRAKE_PAD_3_583": "C",
  "BRAKE_PAD_3_584": "B",
  "BRAKE_PAD_3_590": "A",
  "BRAKE_PAD_3_600": "A",
  "BRAKE_PAD_3_636": "A",
  "BRAKE_PAD_3_638": "B",
  "BRAKE_PAD_3_642": "B",
  "BRAKE_PAD_3_645": "B",
  "BRAKE_PAD_3_647": "C",
  "BRAKE_PAD_3_652": "A",
  "BRAKE_PAD_3_653": "A",
  "BRAKE_PAD_3_674": "A",
  "BRAKE_PAD_3_676": "A",
  "BRAKE_PAD_3_678": "A",
  "BRAKE_PAD_3_692": "A",
  "BRAKE_PAD_3_693": "C",
  "BRAKE_PAD_3_701": "B",
  "BRAKE_PAD_3_703": "B",
  "BRAKE_PAD_3_716": "B",
  "BRAKE_PAD_3_733": "C",
  "BRAKE_PAD_3_742": "B",
  "BRAKE_PAD_3_751": "B",
  "BRAKE_PAD_3_765": "A",
  "BRAKE_PAD_3_774": "A",
  "BRAKE_PAD_3_793": "B",
  "BRAKE_PAD_3_795": "A",
  "BRAKE_PAD_3_805": "A",
  "BRAKE_PAD_3_824": "B",
  "FAN_MOTOR_1_015": "B",
  "FAN_MOTOR_1_021": "A",
  "FAN_MOTOR_1_028": "A",
  "FAN_MOTOR_1_037": "B",
  "FAN_MOTOR_1_064": "C",
  "FAN_MOTOR_1_081": "A",
  "FAN_MOTOR_1_099": "B",
  "FAN_MOTOR_1_142": "A",
  "FAN_MOTOR_1_144": "C",
  "FAN_MOTOR_1_153": "A",
  "FAN_MOTOR_1_170": "A",
  "FAN_MOTOR_1_176": "A",
  "FAN_MOTOR_1_188": "A",
  "FAN_MOTOR_1_202": "A",
  "FAN_MOTOR_1_224": "A",
  "FAN_MOTOR_1_238": "B",
  "FAN_MOTOR_1_255": "A",
  "FAN_MOTOR_1_259": "A",
  "FAN_MOTOR_1_272": "A",
  "FAN_MOTOR_1_291": "A",
  "FAN_MOTOR_1_298": "A",
  "FAN_MOTOR_1_314": "C",
  "FAN_MOTOR_1_339": "A",
  "FAN_MOTOR_1_356": "A",
  "FAN_MOTOR_1_371": "B",
  "FAN_MOTOR_1_390": "C",
  "FAN_MOTOR_1_395": "B",
  "FAN_MOTOR_1_408": "A",
  "FAN_MOTOR_1_441": "B",
  "FAN_MOTOR_1_444": "C",
  "FAN_MOTOR_1_446": "B",
  "FAN_MOTOR_1_462": "A",
  "FAN_MOTOR_1_467": "A",
  "FAN_MOTOR_1_468": "A",
  "FAN_MOTOR_1_505": "A",
  "FAN_MOTOR_1_521": "A",
  "FAN_MOTOR_1_524": "B",
  "FAN_MOTOR_1_537": "A",
  "FAN_MOTOR_2_004": "C",
  "FAN_MOTOR_2_024": "C",
  "FAN_MOTOR_2_036": "A",
  "FAN_MOTOR_2_040": "B",
  "FAN_MOTOR_2_057": "C",
  "FAN_MOTOR_2_062": "B",
  "FAN_MOTOR_2_069": "B",
  "FAN_MOTOR_2_074": "B",
  "FAN_MOTOR_2_130": "C",
  "FAN_MOTOR_2_151": "C",
  "FAN_MOTOR_2_156": "B",
]#;

sku_to_region = #[
  "BRAKE_PAD_3_309": "TX",
  "BRAKE_PAD_3_328": "CA",
  "BRAKE_PAD_3_331": "TX",
  "BRAKE_PAD_3_356": "WI",
  "BRAKE_PAD_3_364": "CA",
  "BRAKE_PAD_3_367": "CA",
  "BRAKE_PAD_3_389": "TX",
  "BRAKE_PAD_3_397": "WI",
  "BRAKE_PAD_3_409": "TX",
  "BRAKE_PAD_3_423": "CA",
  "BRAKE_PAD_3_445": "CA",
  "BRAKE_PAD_3_456": "CA",
  "BRAKE_PAD_3_457": "CA",
  "BRAKE_PAD_3_459": "CA",
  "BRAKE_PAD_3_465": "CA",
  "BRAKE_PAD_3_486": "TX",
  "BRAKE_PAD_3_507": "WI",
  "BRAKE_PAD_3_512": "WI",
  "BRAKE_PAD_3_532": "WI",
  "BRAKE_PAD_3_542": "CA",
  "BRAKE_PAD_3_583": "TX",
  "BRAKE_PAD_3_584": "WI",
  "BRAKE_PAD_3_590": "WI",
  "BRAKE_PAD_3_600": "WI",
  "BRAKE_PAD_3_636": "CA",
  "BRAKE_PAD_3_638": "TX",
  "BRAKE_PAD_3_642": "CA",
  "BRAKE_PAD_3_645": "TX",
  "BRAKE_PAD_3_647": "TX",
  "BRAKE_PAD_3_652": "CA",
  "BRAKE_PAD_3_653": "WI",
  "BRAKE_PAD_3_674": "WI",
  "BRAKE_PAD_3_676": "TX",
  "BRAKE_PAD_3_678": "CA",
  "BRAKE_PAD_3_692": "WI",
  "BRAKE_PAD_3_693": "TX",
  "BRAKE_PAD_3_701": "WI",
  "BRAKE_PAD_3_703": "WI",
  "BRAKE_PAD_3_716": "CA",
  "BRAKE_PAD_3_733": "WI",
  "BRAKE_PAD_3_742": "CA",
  "BRAKE_PAD_3_751": "WI",
  "BRAKE_PAD_3_765": "CA",
  "BRAKE_PAD_3_774": "TX",
  "BRAKE_PAD_3_793": "TX",
  "BRAKE_PAD_3_795": "TX",
  "BRAKE_PAD_3_805": "WI",
  "BRAKE_PAD_3_824": "WI",
  "FAN_MOTOR_1_015": "WI",
  "FAN_MOTOR_1_021": "TX",
  "FAN_MOTOR_1_028": "TX",
  "FAN_MOTOR_1_037": "WI",
  "FAN_MOTOR_1_064": "CA",
  "FAN_MOTOR_1_081": "CA",
  "FAN_MOTOR_1_099": "CA",
  "FAN_MOTOR_1_142": "WI",
  "FAN_MOTOR_1_144": "TX",
  "FAN_MOTOR_1_153": "TX",
  "FAN_MOTOR_1_170": "WI",
  "FAN_MOTOR_1_176": "CA",
  "FAN_MOTOR_1_188": "TX",
  "FAN_MOTOR_1_202": "CA",
  "FAN_MOTOR_1_224": "TX",
  "FAN_MOTOR_1_238": "CA",
  "FAN_MOTOR_1_255": "WI",
  "FAN_MOTOR_1_259": "CA",
  "FAN_MOTOR_1_272": "WI",
  "FAN_MOTOR_1_291": "TX",
  "FAN_MOTOR_1_298": "WI",
  "FAN_MOTOR_1_314": "WI",
  "FAN_MOTOR_1_339": "CA",
  "FAN_MOTOR_1_356": "WI",
  "FAN_MOTOR_1_371": "CA",
  "FAN_MOTOR_1_390": "TX",
  "FAN_MOTOR_1_395": "TX",
  "FAN_MOTOR_1_408": "TX",
  "FAN_MOTOR_1_441": "CA",
  "FAN_MOTOR_1_444": "CA",
  "FAN_MOTOR_1_446": "TX",
  "FAN_MOTOR_1_462": "TX",
  "FAN_MOTOR_1_467": "TX",
  "FAN_MOTOR_1_468": "CA",
  "FAN_MOTOR_1_505": "TX",
  "FAN_MOTOR_1_521": "CA",
  "FAN_MOTOR_1_524": "CA",
  "FAN_MOTOR_1_537": "CA",
  "FAN_MOTOR_2_004": "CA",
  "FAN_MOTOR_2_024": "WI",
  "FAN_MOTOR_2_036": "CA",
  "FAN_MOTOR_2_040": "TX",
  "FAN_MOTOR_2_057": "CA",
  "FAN_MOTOR_2_062": "CA",
  "FAN_MOTOR_2_069": "TX",
  "FAN_MOTOR_2_074": "WI",
  "FAN_MOTOR_2_130": "CA",
  "FAN_MOTOR_2_151": "WI",
  "FAN_MOTOR_2_156": "WI",
]#;

regional_inventory_budget = #[
  "TX": 750000.00,
  "CA": 500000.00,
  "WI": 400000.00,
]#;

